Route #1: 12 40 17 51 6 68 4 75
Route #2: 67 34 52 54 13 27 45 29 48
Route #3: 30 74 28 61 62 73 56 23 63 33
Route #4: 16 49 24 1 43 41 42 64 22 2
Route #5: 57 15 5 37 20 70 60 71 69 36 47 21
Route #6: 46 8 19 59 14 53 35 7
Route #7: 11 66 65 38 10 31 72 58
Route #8: 26 39 9 25 55 18 50 32 44 3
Cost 803
